 ! --------------------------------------------------- CP Optimizer 22.1.1.0 --
 ! Satisfiability problem - 39200 variables, 432236 constraints
 ! Presolve      : 24000 extractables eliminated
 ! TimeLimit            = 3600
 ! Workers              = 1
 ! Initial process time : 3.80s (3.79s extraction + 0.01s propagation)
 !  . Log search space  : 401509.6 (before), 401509.6 (after)
 !  . Memory usage      : 291.7 MB (before), 291.7 MB (after)
 ! Using sequential search.
 ! ----------------------------------------------------------------------------
 !               Branches  Non-fixed            Branch decision
                     1122      37891        F          presenceOf(copy_trips:33_6)
                     2070      38608        F          presenceOf(copy_trips:19_0)
                     3000      14425                   presenceOf(copy_bus_parking:35_286)
                     4000      13514            256  = endOf(start_parking:17)
                     5000      13326                  !presenceOf(copy_bus_parking:19_201)
                     6000      13326                   presenceOf(copy_lane_parking:5_63)
                     7000      26167                   presenceOf(copy_bus_parking:16_135)
                     8000      13326                   presenceOf(copy_lane_parking:6_280)
                     9000      33165                   presenceOf(copy_lane_parking:3_71)
                    10000      13318                  !presenceOf(copy_trips:29_200)
                    11000      13309                  !presenceOf(copy_bus_parking:11_0)
                    12000      23872                   presenceOf(copy_lane_parking:5_5)
                    13000      16448                  !presenceOf(copy_trips:24_28)
                    14000      16448                   presenceOf(copy_lane_parking:4_210)
                    15000      24884        F          presenceOf(copy_trips:27_297)
                    16000      24887                  !presenceOf(copy_trips:6_3)
                    17000      30643                  !presenceOf(copy_bus_parking:15_267)
                    18000      30643        F          presenceOf(copy_trips:8_257)
                    19000      25134                  !presenceOf(copy_trips:13_279)
                    20000      25058                   presenceOf(copy_lane_parking:0_83)
 ! Time = 29.05s, Average fail depth = 367, Memory usage = 969.7 MB
 !               Branches  Non-fixed            Branch decision
                    21000      15720                   presenceOf(copy_trips:2_40)
                    22000      25997        F          presenceOf(copy_trips:28_11)
                    23000      16442                  !presenceOf(copy_trips:33_28)
                    24000      16442                   presenceOf(copy_lane_parking:6_123)
                    25000      24881                   presenceOf(copy_trips:2_183)
                    26000      18590                   presenceOf(copy_lane_parking:1_171)
                    27000      24890                  !presenceOf(copy_bus_parking:39_297)
                    28000      16191                   presenceOf(copy_lane_parking:2_292)
                    29000      13303        F          presenceOf(copy_bus_parking:26_201)
                    30000      13300        F          presenceOf(copy_bus_parking:10_25)
                    31000      25810                  !presenceOf(copy_bus_parking:11_25)
                    32000      25798                  !presenceOf(copy_bus_parking:28_25)
                    33000      25613                   presenceOf(copy_lane_parking:6_5)
                    34000      27071        F          presenceOf(copy_trips:29_5)
                    35000      15923        F          presenceOf(copy_bus_parking:7_24)
                    36000      15862                   presenceOf(copy_bus_parking:10_244)
                    37000      24884                  !presenceOf(copy_trips:13_297)
                    38000      24881        F          presenceOf(copy_trips:4_298)
                    39000      24884                  !presenceOf(copy_trips:38_297)
                    40000      24884                   presenceOf(copy_lane_parking:7_189)
 ! Time = 51.64s, Average fail depth = 386, Memory usage = 972.2 MB
 !               Branches  Non-fixed            Branch decision
                    41000      13318                   presenceOf(copy_bus_parking:19_26)
                    42000      24887                   presenceOf(copy_trips:3_297)
                    43000      24887        F          presenceOf(copy_trips:4_297)
                    44000      24884        F          presenceOf(copy_trips:24_297)
                    45000      24887        F          presenceOf(copy_trips:21_297)
                    46000      24872                   presenceOf(copy_lane_parking:0_46)
                    47000      24887        F          presenceOf(copy_bus_parking:36_297)
                    48000      24890        F          presenceOf(copy_bus_parking:16_297)
                    49000      24890                   presenceOf(copy_bus_parking:38_297)
                    50000      24887        F          presenceOf(copy_bus_parking:19_297)
                    51000      24890        F          presenceOf(copy_bus_parking:36_297)
                    52000      24887        F          presenceOf(copy_bus_parking:3_297)
                    53000      24890        F         !presenceOf(copy_bus_parking:13_298)
                    54000      24890        F          presenceOf(copy_bus_parking:16_297)
                    55000      24887        F          presenceOf(copy_bus_parking:29_297)
                    56000      24890        F          presenceOf(copy_bus_parking:28_297)
                    57000      24890        F          presenceOf(copy_bus_parking:13_298)
                    58000      24887        F          presenceOf(copy_bus_parking:35_297)
                    59000      24890        F          presenceOf(copy_bus_parking:22_297)
                    60000      25014        F          presenceOf(copy_bus_parking:6_20)
 ! Time = 68.88s, Average fail depth = 394, Memory usage = 972.2 MB
 !               Branches  Non-fixed            Branch decision
                    61000      13320                  !presenceOf(copy_trips:7_201)
                    62000      13320                   presenceOf(copy_lane_parking:7_231)
                    63000      35883            256  = endOf(start_parking:24)
                    64000      26349        F          presenceOf(copy_trips:8_22)
                    65000      15708                   presenceOf(copy_lane_parking:0_81)
                    66000      24887                   presenceOf(copy_lane_parking:2_124)
                    67000      26858        F          presenceOf(copy_trips:2_22)
                    68000      26301        F          presenceOf(copy_trips:10_22)
                    69000      26129                  !presenceOf(copy_bus_parking:27_6)
                    70000      26301        F         !presenceOf(copy_bus_parking:2_1)
                    71000      24899        F         !presenceOf(copy_bus_parking:17_298)
                    72000      13317        F          presenceOf(copy_trips:39_201)
                    73000      13317                   presenceOf(copy_trips:18_297)
                    74000      16194        F          presenceOf(copy_trips:30_24)
                    75000      16194                   presenceOf(copy_trips:0_297)
                    76000      24884        F         !presenceOf(copy_bus_parking:37_298)
                    77000      24872                  !presenceOf(copy_trips:11_297)
                    78000      24872                  !presenceOf(copy_trips:8_297)
                    79000      24872                  !presenceOf(copy_trips:35_297)
                    80000      24872                   presenceOf(copy_lane_parking:6_136)
 ! Time = 92.34s, Average fail depth = 390, Memory usage = 978.3 MB
 !               Branches  Non-fixed            Branch decision
                    81000      24878        F          presenceOf(copy_trips:36_212)
                    82000      24884                   presenceOf(copy_lane_parking:4_208)
                    83000      13306                  !presenceOf(copy_bus_parking:2_201)
                    84000      13306                   presenceOf(copy_lane_parking:4_233)
                    85000      24887                   presenceOf(copy_bus_parking:32_47)
                    86000      24881                  !presenceOf(copy_bus_parking:26_297)
                    87000      24881                   presenceOf(copy_bus_parking:21_140)
                    88000      13324        F          presenceOf(copy_bus_parking:22_201)
                    89000      13324                  !presenceOf(copy_bus_parking:11_200)
                    90000      13324                  !presenceOf(copy_bus_parking:17_200)
                    91000      13324        F          presenceOf(copy_bus_parking:22_201)
                    92000      13324        F          presenceOf(copy_bus_parking:22_201)
                    93000      13324                  !presenceOf(copy_bus_parking:39_200)
                    94000      13324                  !presenceOf(copy_bus_parking:22_200)
                    95000      13324        F          presenceOf(copy_bus_parking:13_201)
                    96000      13324                  !presenceOf(copy_bus_parking:39_200)
                    97000      13324                  !presenceOf(copy_bus_parking:14_200)
                    98000      13324        F          presenceOf(copy_bus_parking:13_201)
                    99000      13324        F          presenceOf(copy_bus_parking:22_201)
                     100k      13324                   presenceOf(copy_lane_parking:4_276)
 ! Time = 104.39s, Average fail depth = 411, Memory usage = 978.3 MB
 !               Branches  Non-fixed            Branch decision
                     101k      15771                   presenceOf(copy_lane_parking:3_242)
                     102k      16345                   presenceOf(copy_lane_parking:3_17)
                     103k      24881        F          presenceOf(copy_bus_parking:28_297)
                     104k      24881        F          presenceOf(copy_bus_parking:27_297)
                     105k      24884        F          presenceOf(copy_bus_parking:39_297)
                     106k      24881                   presenceOf(copy_lane_parking:3_113)
                     107k      24893        F         !presenceOf(copy_trips:0_298)
                     108k      24893        F          presenceOf(copy_trips:6_297)
                     109k      24893        F          presenceOf(copy_trips:15_297)
                     110k      24893        F         !presenceOf(copy_trips:0_298)
                     111k      24893        F         !presenceOf(copy_trips:0_298)
                     112k      24893        F          presenceOf(copy_trips:1_297)
                     113k      24893                   presenceOf(copy_trips:5_297)
                     114k      24893        F         !presenceOf(copy_trips:0_298)
                     115k      24893        F          presenceOf(copy_trips:10_297)
                     116k      24893                   presenceOf(copy_trips:23_297)
                     117k      24893        F          presenceOf(copy_trips:32_297)
                     118k      24893        F         !presenceOf(copy_trips:0_298)
                     119k      24893        F         !presenceOf(copy_trips:0_298)
                     120k      13318                   presenceOf(copy_lane_parking:1_66)
 ! Time = 123.00s, Average fail depth = 409, Memory usage = 978.7 MB
 !               Branches  Non-fixed            Branch decision
                     121k      13324                   presenceOf(copy_lane_parking:3_207)
                     122k      13329                  !presenceOf(copy_trips:2_201)
                     123k      13329        F          presenceOf(copy_trips:8_26)
                     124k      15871                  !presenceOf(copy_bus_parking:8_26)
                     125k      15469        F          presenceOf(copy_bus_parking:30_23)
                     126k      15472        F          presenceOf(copy_bus_parking:29_23)
                     127k      15469        F          presenceOf(copy_bus_parking:19_23)
                     128k      15475                  !presenceOf(copy_trips:34_7)
                     129k      24881                   presenceOf(copy_lane_parking:7_22)
                     130k      16360        F          presenceOf(copy_bus_parking:2_28)
                     131k      16360        F          presenceOf(copy_bus_parking:3_28)
                     132k      16360        F          presenceOf(copy_bus_parking:31_28)
                     133k      16360        F          presenceOf(copy_bus_parking:10_28)
                     134k      16360        F          presenceOf(copy_bus_parking:39_28)
                     135k      16360        F          presenceOf(copy_bus_parking:37_28)
                     136k      16360        F          presenceOf(copy_bus_parking:8_28)
                     137k      16360        F          presenceOf(copy_bus_parking:10_28)
                     138k      16360        F          presenceOf(copy_bus_parking:13_28)
                     139k      16360        F          presenceOf(copy_bus_parking:21_28)
                     140k      16360        F          presenceOf(copy_bus_parking:15_28)
 ! Time = 139.92s, Average fail depth = 419, Memory usage = 978.7 MB
 !               Branches  Non-fixed            Branch decision
                     141k      16360        F          presenceOf(copy_bus_parking:11_28)
                     142k      16360        F          presenceOf(copy_bus_parking:32_28)
                     143k      16360                  !presenceOf(copy_trips:7_252)
                     144k      13296                   presenceOf(copy_trips:0_279)
                     145k      13214                  !presenceOf(copy_trips:26_251)
                     146k      13220                  !presenceOf(copy_trips:25_244)
                     147k      13299                  !presenceOf(copy_bus_parking:33_207)
                     148k      13220        F          presenceOf(copy_bus_parking:11_207)
                     149k      13299        F         !presenceOf(copy_bus_parking:17_207)
                     150k      13220        F          presenceOf(copy_bus_parking:26_207)
                     151k      13299        F          presenceOf(copy_trips:26_225)
                     152k      13220                  !presenceOf(copy_trips:14_225)
                     153k      13384                  !presenceOf(copy_trips:33_279)
                     154k      13299                  !presenceOf(copy_bus_parking:7_207)
                     155k      13220        F          presenceOf(copy_bus_parking:34_207)
                     156k      13220                  !presenceOf(copy_trips:38_279)
                     157k      13220                  !presenceOf(copy_trips:38_225)
                     158k      13299                  !presenceOf(copy_trips:12_251)
                     159k      13220                  !presenceOf(copy_trips:2_225)
                     160k      13220        F          presenceOf(copy_bus_parking:38_207)
 ! Time = 146.80s, Average fail depth = 430, Memory usage = 978.7 MB
 !               Branches  Non-fixed            Branch decision
                     161k      13220                  !presenceOf(copy_trips:1_279)
                     162k      13220        F          presenceOf(copy_bus_parking:11_207)
                     163k      13299                  !presenceOf(copy_trips:33_251)
                     164k      13220        F          presenceOf(copy_trips:26_225)
                     165k      13220                  !presenceOf(copy_trips:7_244)
                     166k      13299        F         !presenceOf(copy_bus_parking:17_207)
                     167k      13220        F          presenceOf(copy_trips:7_279)
                     168k      13299                  !presenceOf(copy_trips:0_251)
                     169k      13220                  !presenceOf(copy_trips:23_225)
                     170k      13299        F          presenceOf(copy_trips:0_251)
                     171k      13220                  !presenceOf(copy_trips:14_251)
                     172k      13220        F          presenceOf(copy_trips:27_244)
                     173k      13220                  !presenceOf(copy_bus_parking:22_207)
                     174k      13220        F          presenceOf(copy_bus_parking:10_207)
                     175k      13299        F          presenceOf(copy_trips:35_225)
                     176k      13220                  !presenceOf(copy_trips:38_225)
                     177k      13299                  !presenceOf(copy_bus_parking:35_207)
                     178k      13220        F          presenceOf(copy_trips:26_279)
                     179k      13299        F          presenceOf(copy_trips:35_225)
                     180k      13220                  !presenceOf(copy_trips:25_244)
 ! Time = 151.79s, Average fail depth = 439, Memory usage = 978.7 MB
 !               Branches  Non-fixed            Branch decision
                     181k      13299        F          presenceOf(copy_bus_parking:26_207)
                     182k      13220                  !presenceOf(copy_bus_parking:21_207)
                     183k      13299        F          presenceOf(copy_trips:10_213)
                     184k      13220                  !presenceOf(copy_bus_parking:33_207)
                     185k      13220                  !presenceOf(copy_trips:6_244)
                     186k      13220                  !presenceOf(copy_trips:11_251)
                     187k      13220                  !presenceOf(copy_trips:36_244)
                     188k      13220                  !presenceOf(copy_trips:36_225)
                     189k      13299        F          presenceOf(copy_trips:2_279)
                     190k      13299        F          presenceOf(copy_trips:23_225)
                     191k      13220                  !presenceOf(copy_trips:0_225)
                     192k      13299        F          presenceOf(copy_trips:20_279)
                     193k      13220        F          presenceOf(copy_trips:27_244)
                     194k      13232                   presenceOf(copy_lane_parking:4_96)
                     195k      23741                   presenceOf(copy_lane_parking:0_31)
                     196k      26113        F          presenceOf(copy_bus_parking:20_1)
                     197k      25899                  !presenceOf(copy_trips:10_3)
                     198k      24881        F          presenceOf(copy_bus_parking:38_297)
                     199k      24881                   presenceOf(copy_bus_parking:0_297)
                     200k      24881        F          presenceOf(copy_bus_parking:3_297)
 ! Time = 161.96s, Average fail depth = 442, Memory usage = 978.7 MB
 !               Branches  Non-fixed            Branch decision
                     201k      24878                   presenceOf(copy_trips:30_24)
                     202k      13314                  !presenceOf(copy_trips:1_201)
                     203k      13311                   presenceOf(copy_trips:18_142)
                     204k      13063        F          presenceOf(copy_trips:9_0)
                     205k      21365        F          presenceOf(copy_bus_parking:15_42)
                     206k      26318                  !presenceOf(copy_bus_parking:15_29)
                     207k      26409                   presenceOf(copy_lane_parking:3_36)
                     208k      25783                   presenceOf(copy_lane_parking:7_96)
                     209k      15761                  !presenceOf(copy_trips:3_27)
                     210k      15761        F          presenceOf(copy_trips:10_26)
                     211k      15761        F          presenceOf(copy_trips:39_27)
                     212k      15764                   presenceOf(copy_trips:3_106)
                     213k      13308                  !presenceOf(copy_trips:1_6)
                     214k      25882                  !presenceOf(copy_trips:1_6)
                     215k      25852        F          presenceOf(copy_trips:29_6)
                     216k      26416                  !presenceOf(copy_trips:29_6)
                     217k      13311                   presenceOf(copy_lane_parking:6_153)
                     218k      26775                   presenceOf(copy_lane_parking:7_129)
                     219k      24875                  !presenceOf(copy_trips:25_297)
                     220k      24875                   presenceOf(copy_lane_parking:5_10)
 ! Time = 186.38s, Average fail depth = 440, Memory usage = 978.8 MB
 !               Branches  Non-fixed            Branch decision
                     221k      13324                   presenceOf(copy_lane_parking:3_32)
                     222k      13323        F          presenceOf(copy_bus_parking:16_201)
                     223k      13323                   presenceOf(copy_bus_parking:22_91)
                     224k      26179                   presenceOf(copy_lane_parking:6_32)
                     225k      26205            678  = startOf(charge:7_18)
                     226k      20597                   presenceOf(copy_lane_parking:2_220)
                     227k      27452                  !presenceOf(copy_trips:6_26)
                     228k      26131                   presenceOf(copy_lane_parking:1_190)
                     229k      26773        F          presenceOf(copy_trips:15_6)
                     230k      26058        F          presenceOf(copy_trips:38_28)
                     231k      15833        F          presenceOf(copy_trips:30_27)
                     232k      15827                   presenceOf(copy_bus_parking:0_117)
                     233k      13321        F          presenceOf(copy_bus_parking:17_6)
                     234k      30000                  !presenceOf(copy_trips:24_269)
                     235k      30000                  !presenceOf(copy_trips:30_3)
                     236k      24881        F         !presenceOf(copy_trips:22_298)
                     237k      24881                   presenceOf(copy_trips:6_297)
                     238k      24884        F          presenceOf(copy_trips:32_297)
                     239k      24881                   presenceOf(copy_lane_parking:1_224)
                     240k      16675                   presenceOf(copy_trips:3_253)
 ! Time = 213.13s, Average fail depth = 434, Memory usage = 982.0 MB
 !               Branches  Non-fixed            Branch decision
                     241k      13317        F          presenceOf(copy_bus_parking:35_1)
                     242k      23678        F          presenceOf(copy_trips:16_8)
                     243k      16354                  !presenceOf(copy_trips:25_37)
                     244k      16354                   presenceOf(copy_bus_parking:18_93)
                     245k      16360                   presenceOf(copy_lane_parking:4_122)
                     246k      25971                   presenceOf(copy_lane_parking:1_26)
                     247k      20317                  !presenceOf(copy_trips:5_145)
                     248k      10919        F          presenceOf(copy_trips:29_244)
                     249k         28        F   on charge:27_275
 *                   249k  223.55s                   -
 ! ----------------------------------------------------------------------------
 ! Search completed, 1 solution found.
 ! ----------------------------------------------------------------------------
 ! Number of branches     : 249077
 ! Number of fails        : 98614
 ! Total memory usage     : 1.1 GB (1.1 GB CP Optimizer + 0.0 GB Concert)
 ! Time spent in solve    : 223.55s (219.77s engine + 3.79s extraction)
 ! Search speed (br. / s) : 1133.4
 ! ----------------------------------------------------------------------------
